Problem:    problem
Rows:       74
Columns:    72 (72 integer, 72 binary)
Non-zeros:  264
Status:     INTEGER OPTIMAL
Objective:  Total_Cost = 632740.9922 (MINimum)

   No.   Row name        Activity     Lower bound   Upper bound
------ ------------    ------------- ------------- -------------
     1 Total_Cost             632741                             
     2 total_dcs                   1                           1 
     3 deliver_to[Lisbon]
                                   1             1             = 
     4 deliver_to[Porto]
                                   1             1             = 
     5 deliver_to[Braga]
                                   1             1             = 
     6 deliver_to[Coimbra]
                                   1             1             = 
     7 deliver_to[Braganca]
                                   1             1             = 
     8 deliver_to[Guarda]
                                   1             1             = 
     9 deliver_to[Viseu]
                                   1             1             = 
    10 deliver_to[Vila_Real_de_Santo_Antonio]
                                   1             1             = 
    11 active_dc[Lisbon,Lisbon]
                                   0                          -0 
    12 active_dc[Lisbon,Porto]
                                   0                          -0 
    13 active_dc[Lisbon,Braga]
                                   0                          -0 
    14 active_dc[Lisbon,Coimbra]
                                   0                          -0 
    15 active_dc[Lisbon,Braganca]
                                   0                          -0 
    16 active_dc[Lisbon,Guarda]
                                   0                          -0 
    17 active_dc[Lisbon,Viseu]
                                   0                          -0 
    18 active_dc[Lisbon,Vila_Real_de_Santo_Antonio]
                                   0                          -0 
    19 active_dc[Porto,Lisbon]
                                   0                          -0 
    20 active_dc[Porto,Porto]
                                   0                          -0 
    21 active_dc[Porto,Braga]
                                   0                          -0 
    22 active_dc[Porto,Coimbra]
                                   0                          -0 
    23 active_dc[Porto,Braganca]
                                   0                          -0 
    24 active_dc[Porto,Guarda]
                                   0                          -0 
    25 active_dc[Porto,Viseu]
                                   0                          -0 
    26 active_dc[Porto,Vila_Real_de_Santo_Antonio]
                                   0                          -0 
    27 active_dc[Braga,Lisbon]
                                   0                          -0 
    28 active_dc[Braga,Porto]
                                   0                          -0 
    29 active_dc[Braga,Braga]
                                   0                          -0 
    30 active_dc[Braga,Coimbra]
                                   0                          -0 
    31 active_dc[Braga,Braganca]
                                   0                          -0 
    32 active_dc[Braga,Guarda]
                                   0                          -0 
    33 active_dc[Braga,Viseu]
                                   0                          -0 
    34 active_dc[Braga,Vila_Real_de_Santo_Antonio]
                                   0                          -0 
    35 active_dc[Coimbra,Lisbon]
                                   0                          -0 
    36 active_dc[Coimbra,Porto]
                                   0                          -0 
    37 active_dc[Coimbra,Braga]
                                   0                          -0 
    38 active_dc[Coimbra,Coimbra]
                                   0                          -0 
    39 active_dc[Coimbra,Braganca]
                                   0                          -0 
    40 active_dc[Coimbra,Guarda]
                                   0                          -0 
    41 active_dc[Coimbra,Viseu]
                                   0                          -0 
    42 active_dc[Coimbra,Vila_Real_de_Santo_Antonio]
                                   0                          -0 
    43 active_dc[Braganca,Lisbon]
                                   0                          -0 
    44 active_dc[Braganca,Porto]
                                   0                          -0 
    45 active_dc[Braganca,Braga]
                                   0                          -0 
    46 active_dc[Braganca,Coimbra]
                                   0                          -0 
    47 active_dc[Braganca,Braganca]
                                   0                          -0 
    48 active_dc[Braganca,Guarda]
                                   0                          -0 
    49 active_dc[Braganca,Viseu]
                                   0                          -0 
    50 active_dc[Braganca,Vila_Real_de_Santo_Antonio]
                                   0                          -0 
    51 active_dc[Guarda,Lisbon]
                                   0                          -0 
    52 active_dc[Guarda,Porto]
                                   0                          -0 
    53 active_dc[Guarda,Braga]
                                   0                          -0 
    54 active_dc[Guarda,Coimbra]
                                   0                          -0 
    55 active_dc[Guarda,Braganca]
                                   0                          -0 
    56 active_dc[Guarda,Guarda]
                                   0                          -0 
    57 active_dc[Guarda,Viseu]
                                   0                          -0 
    58 active_dc[Guarda,Vila_Real_de_Santo_Antonio]
                                   0                          -0 
    59 active_dc[Viseu,Lisbon]
                                   0                          -0 
    60 active_dc[Viseu,Porto]
                                   0                          -0 
    61 active_dc[Viseu,Braga]
                                   0                          -0 
    62 active_dc[Viseu,Coimbra]
                                   0                          -0 
    63 active_dc[Viseu,Braganca]
                                   0                          -0 
    64 active_dc[Viseu,Guarda]
                                   0                          -0 
    65 active_dc[Viseu,Viseu]
                                   0                          -0 
    66 active_dc[Viseu,Vila_Real_de_Santo_Antonio]
                                   0                          -0 
    67 active_dc[Vila_Real_de_Santo_Antonio,Lisbon]
                                   0                          -0 
    68 active_dc[Vila_Real_de_Santo_Antonio,Porto]
                                   0                          -0 
    69 active_dc[Vila_Real_de_Santo_Antonio,Braga]
                                   0                          -0 
    70 active_dc[Vila_Real_de_Santo_Antonio,Coimbra]
                                   0                          -0 
    71 active_dc[Vila_Real_de_Santo_Antonio,Braganca]
                                   0                          -0 
    72 active_dc[Vila_Real_de_Santo_Antonio,Guarda]
                                   0                          -0 
    73 active_dc[Vila_Real_de_Santo_Antonio,Viseu]
                                   0                          -0 
    74 active_dc[Vila_Real_de_Santo_Antonio,Vila_Real_de_Santo_Antonio]
                                   0                          -0 

   No. Column name       Activity     Lower bound   Upper bound
------ ------------    ------------- ------------- -------------
     1 dc[Lisbon]   *              0             0             1 
     2 dc[Porto]    *              0             0             1 
     3 dc[Braga]    *              0             0             1 
     4 dc[Coimbra]  *              1             0             1 
     5 dc[Braganca] *              0             0             1 
     6 dc[Guarda]   *              0             0             1 
     7 dc[Viseu]    *              0             0             1 
     8 dc[Vila_Real_de_Santo_Antonio]
                    *              0             0             1 
     9 deliver[Lisbon,Lisbon]
                    *              0             0             1 
    10 deliver[Lisbon,Porto]
                    *              0             0             1 
    11 deliver[Lisbon,Braga]
                    *              0             0             1 
    12 deliver[Lisbon,Coimbra]
                    *              0             0             1 
    13 deliver[Lisbon,Braganca]
                    *              0             0             1 
    14 deliver[Lisbon,Guarda]
                    *              0             0             1 
    15 deliver[Lisbon,Viseu]
                    *              0             0             1 
    16 deliver[Lisbon,Vila_Real_de_Santo_Antonio]
                    *              0             0             1 
    17 deliver[Porto,Lisbon]
                    *              0             0             1 
    18 deliver[Porto,Porto]
                    *              0             0             1 
    19 deliver[Porto,Braga]
                    *              0             0             1 
    20 deliver[Porto,Coimbra]
                    *              0             0             1 
    21 deliver[Porto,Braganca]
                    *              0             0             1 
    22 deliver[Porto,Guarda]
                    *              0             0             1 
    23 deliver[Porto,Viseu]
                    *              0             0             1 
    24 deliver[Porto,Vila_Real_de_Santo_Antonio]
                    *              0             0             1 
    25 deliver[Braga,Lisbon]
                    *              0             0             1 
    26 deliver[Braga,Porto]
                    *              0             0             1 
    27 deliver[Braga,Braga]
                    *              0             0             1 
    28 deliver[Braga,Coimbra]
                    *              0             0             1 
    29 deliver[Braga,Braganca]
                    *              0             0             1 
    30 deliver[Braga,Guarda]
                    *              0             0             1 
    31 deliver[Braga,Viseu]
                    *              0             0             1 
    32 deliver[Braga,Vila_Real_de_Santo_Antonio]
                    *              0             0             1 
    33 deliver[Coimbra,Lisbon]
                    *              1             0             1 
    34 deliver[Coimbra,Porto]
                    *              1             0             1 
    35 deliver[Coimbra,Braga]
                    *              1             0             1 
    36 deliver[Coimbra,Coimbra]
                    *              1             0             1 
    37 deliver[Coimbra,Braganca]
                    *              1             0             1 
    38 deliver[Coimbra,Guarda]
                    *              1             0             1 
    39 deliver[Coimbra,Viseu]
                    *              1             0             1 
    40 deliver[Coimbra,Vila_Real_de_Santo_Antonio]
                    *              1             0             1 
    41 deliver[Braganca,Lisbon]
                    *              0             0             1 
    42 deliver[Braganca,Porto]
                    *              0             0             1 
    43 deliver[Braganca,Braga]
                    *              0             0             1 
    44 deliver[Braganca,Coimbra]
                    *              0             0             1 
    45 deliver[Braganca,Braganca]
                    *              0             0             1 
    46 deliver[Braganca,Guarda]
                    *              0             0             1 
    47 deliver[Braganca,Viseu]
                    *              0             0             1 
    48 deliver[Braganca,Vila_Real_de_Santo_Antonio]
                    *              0             0             1 
    49 deliver[Guarda,Lisbon]
                    *              0             0             1 
    50 deliver[Guarda,Porto]
                    *              0             0             1 
    51 deliver[Guarda,Braga]
                    *              0             0             1 
    52 deliver[Guarda,Coimbra]
                    *              0             0             1 
    53 deliver[Guarda,Braganca]
                    *              0             0             1 
    54 deliver[Guarda,Guarda]
                    *              0             0             1 
    55 deliver[Guarda,Viseu]
                    *              0             0             1 
    56 deliver[Guarda,Vila_Real_de_Santo_Antonio]
                    *              0             0             1 
    57 deliver[Viseu,Lisbon]
                    *              0             0             1 
    58 deliver[Viseu,Porto]
                    *              0             0             1 
    59 deliver[Viseu,Braga]
                    *              0             0             1 
    60 deliver[Viseu,Coimbra]
                    *              0             0             1 
    61 deliver[Viseu,Braganca]
                    *              0             0             1 
    62 deliver[Viseu,Guarda]
                    *              0             0             1 
    63 deliver[Viseu,Viseu]
                    *              0             0             1 
    64 deliver[Viseu,Vila_Real_de_Santo_Antonio]
                    *              0             0             1 
    65 deliver[Vila_Real_de_Santo_Antonio,Lisbon]
                    *              0             0             1 
    66 deliver[Vila_Real_de_Santo_Antonio,Porto]
                    *              0             0             1 
    67 deliver[Vila_Real_de_Santo_Antonio,Braga]
                    *              0             0             1 
    68 deliver[Vila_Real_de_Santo_Antonio,Coimbra]
                    *              0             0             1 
    69 deliver[Vila_Real_de_Santo_Antonio,Braganca]
                    *              0             0             1 
    70 deliver[Vila_Real_de_Santo_Antonio,Guarda]
                    *              0             0             1 
    71 deliver[Vila_Real_de_Santo_Antonio,Viseu]
                    *              0             0             1 
    72 deliver[Vila_Real_de_Santo_Antonio,Vila_Real_de_Santo_Antonio]
                    *              0             0             1 

Integer feasibility conditions:

KKT.PE: max.abs.err = 0.00e+00 on row 0
        max.rel.err = 0.00e+00 on row 0
        High quality

KKT.PB: max.abs.err = 0.00e+00 on row 0
        max.rel.err = 0.00e+00 on row 0
        High quality

End of output
